(set-info :source |printed by MathSAT|)
(declare-fun |!{$(in_main#0)<x>}| () Int)
(declare-fun |!{$(in_main#0)<x>}.next| () Int)
(declare-fun |!{$(in_main#0)<a1.1>}| () (Array Int Int))
(declare-fun |!{$(in_main#0)<a1.1>}.next| () (Array Int Int))
(declare-fun |!{$(in_main#0)<a2.2>}| () (Array Int Int))
(declare-fun |!{$(in_main#0)<a2.2>}.next| () (Array Int Int))
(declare-fun |!{$(in_main#0)<a3.3>}| () (Array Int Int))
(declare-fun |!{$(in_main#0)<a3.3>}.next| () (Array Int Int))
(declare-fun |!{$(in_main#0)<a4.4>}| () (Array Int Int))
(declare-fun |!{$(in_main#0)<a4.4>}.next| () (Array Int Int))
(declare-fun |!{$(in_main#0)<a5.5>}| () (Array Int Int))
(declare-fun |!{$(in_main#0)<a5.5>}.next| () (Array Int Int))
(declare-fun |!{$(in_main#0)<a6.6>}| () (Array Int Int))
(declare-fun |!{$(in_main#0)<a6.6>}.next| () (Array Int Int))
(declare-fun |!{$(in_main#0)<a7.7>}| () (Array Int Int))
(declare-fun |!{$(in_main#0)<a7.7>}.next| () (Array Int Int))
(declare-fun |!{$(in_main#0)<a8.8>}| () (Array Int Int))
(declare-fun |!{$(in_main#0)<a8.8>}.next| () (Array Int Int))
(declare-fun |!{$(in_main#0)<N>}| () Int)
(declare-fun |!{$(in_main#0)<N>}.next| () Int)
(declare-fun |!{$(in_main#0)<a>}| () Int)
(declare-fun |!{$(in_main#0)<a>}.next| () Int)
(declare-fun |!{$(in_main#0)<i>}| () Int)
(declare-fun |!{$(in_main#0)<i>}.next| () Int)
(declare-fun |!{$(in_main#0)<$(in___VERIFIER_nondet_int#0)<h#<__VERIFIER_nondet_int.return>>>}| () Int)
(declare-fun |!{$(in_main#0)<$(in___VERIFIER_nondet_int#1)<h#<__VERIFIER_nondet_int.return>>>}| () Int)
(declare-fun !pc () Int)
(declare-fun !pc.next () Int)
(declare-fun |%{$(in_main#0)<i>}#1| () Int)
(declare-fun |%{$(in_main#0)<x>}#1| () Int)
(declare-fun |%{$(in_main#0)<a1.1>}#1| () (Array Int Int))
(declare-fun |%{$(in_main#0)<a2.2>}#1| () (Array Int Int))
(declare-fun |%{$(in_main#0)<a3.3>}#1| () (Array Int Int))
(declare-fun |%{$(in_main#0)<a4.4>}#1| () (Array Int Int))
(declare-fun |%{$(in_main#0)<a5.5>}#1| () (Array Int Int))
(declare-fun |%{$(in_main#0)<a6.6>}#1| () (Array Int Int))
(declare-fun |%{$(in_main#0)<a7.7>}#1| () (Array Int Int))
(declare-fun |%{$(in_main#0)<a8.8>}#1| () (Array Int Int))
(define-fun .def_52 () Int (! !pc :next !pc.next))
(define-fun .def_55 () Bool (! (= .def_52 2) :init true))
(define-fun .def_376 () Bool (= .def_52 40))
(define-fun .def_348 () Bool (= !pc.next 61))
(define-fun .def_379 () Bool (and .def_348 .def_376))
(define-fun .def_28 () Int (! |!{$(in_main#0)<a>}| :next |!{$(in_main#0)<a>}.next|))
(define-fun .def_26 () Int (! |!{$(in_main#0)<N>}| :next |!{$(in_main#0)<N>}.next|))
(define-fun .def_355 () Bool (<= .def_26 .def_28))
(define-fun .def_238 () Bool (= |!{$(in_main#0)<i>}.next| 0))
(define-fun .def_10 () (Array Int Int) (! |!{$(in_main#0)<a1.1>}| :next |!{$(in_main#0)<a1.1>}.next|))
(define-fun .def_114 () Bool (= .def_10 |!{$(in_main#0)<a1.1>}.next|))
(define-fun .def_8 () Int (! |!{$(in_main#0)<x>}| :next |!{$(in_main#0)<x>}.next|))
(define-fun .def_112 () Bool (= .def_8 |!{$(in_main#0)<x>}.next|))
(define-fun .def_188 () Bool (and .def_112 .def_114))
(define-fun .def_12 () (Array Int Int) (! |!{$(in_main#0)<a2.2>}| :next |!{$(in_main#0)<a2.2>}.next|))
(define-fun .def_116 () Bool (= .def_12 |!{$(in_main#0)<a2.2>}.next|))
(define-fun .def_189 () Bool (and .def_116 .def_188))
(define-fun .def_14 () (Array Int Int) (! |!{$(in_main#0)<a3.3>}| :next |!{$(in_main#0)<a3.3>}.next|))
(define-fun .def_118 () Bool (= .def_14 |!{$(in_main#0)<a3.3>}.next|))
(define-fun .def_190 () Bool (and .def_118 .def_189))
(define-fun .def_16 () (Array Int Int) (! |!{$(in_main#0)<a4.4>}| :next |!{$(in_main#0)<a4.4>}.next|))
(define-fun .def_120 () Bool (= .def_16 |!{$(in_main#0)<a4.4>}.next|))
(define-fun .def_191 () Bool (and .def_120 .def_190))
(define-fun .def_18 () (Array Int Int) (! |!{$(in_main#0)<a5.5>}| :next |!{$(in_main#0)<a5.5>}.next|))
(define-fun .def_122 () Bool (= .def_18 |!{$(in_main#0)<a5.5>}.next|))
(define-fun .def_192 () Bool (and .def_122 .def_191))
(define-fun .def_20 () (Array Int Int) (! |!{$(in_main#0)<a6.6>}| :next |!{$(in_main#0)<a6.6>}.next|))
(define-fun .def_124 () Bool (= .def_20 |!{$(in_main#0)<a6.6>}.next|))
(define-fun .def_193 () Bool (and .def_124 .def_192))
(define-fun .def_22 () (Array Int Int) (! |!{$(in_main#0)<a7.7>}| :next |!{$(in_main#0)<a7.7>}.next|))
(define-fun .def_126 () Bool (= .def_22 |!{$(in_main#0)<a7.7>}.next|))
(define-fun .def_194 () Bool (and .def_126 .def_193))
(define-fun .def_24 () (Array Int Int) (! |!{$(in_main#0)<a8.8>}| :next |!{$(in_main#0)<a8.8>}.next|))
(define-fun .def_128 () Bool (= .def_24 |!{$(in_main#0)<a8.8>}.next|))
(define-fun .def_235 () Bool (and .def_128 .def_194))
(define-fun .def_130 () Bool (= .def_26 |!{$(in_main#0)<N>}.next|))
(define-fun .def_236 () Bool (and .def_130 .def_235))
(define-fun .def_132 () Bool (= .def_28 |!{$(in_main#0)<a>}.next|))
(define-fun .def_237 () Bool (and .def_132 .def_236))
(define-fun .def_239 () Bool (and .def_237 .def_238))
(define-fun .def_375 () Bool (and .def_239 .def_355))
(define-fun .def_380 () Bool (and .def_375 .def_379))
(define-fun .def_98 () Bool (= !pc.next 40))
(define-fun .def_377 () Bool (and .def_98 .def_376))
(define-fun .def_369 () Int (* (- 1) |!{$(in_main#0)<a>}.next|))
(define-fun .def_370 () Int (+ .def_28 .def_369))
(define-fun .def_371 () Bool (= .def_370 (- 1)))
(define-fun .def_357 () (Array Int Int) (store .def_10 .def_28 |!{$(in_main#0)<$(in___VERIFIER_nondet_int#1)<h#<__VERIFIER_nondet_int.return>>>}|))
(define-fun .def_359 () Bool (= |!{$(in_main#0)<a1.1>}.next| .def_357))
(define-fun .def_360 () Bool (and .def_112 .def_359))
(define-fun .def_361 () Bool (and .def_116 .def_360))
(define-fun .def_362 () Bool (and .def_118 .def_361))
(define-fun .def_363 () Bool (and .def_120 .def_362))
(define-fun .def_364 () Bool (and .def_122 .def_363))
(define-fun .def_365 () Bool (and .def_124 .def_364))
(define-fun .def_366 () Bool (and .def_126 .def_365))
(define-fun .def_367 () Bool (and .def_128 .def_366))
(define-fun .def_368 () Bool (and .def_130 .def_367))
(define-fun .def_372 () Bool (and .def_368 .def_371))
(define-fun .def_30 () Int (! |!{$(in_main#0)<i>}| :next |!{$(in_main#0)<i>}.next|))
(define-fun .def_134 () Bool (= .def_30 |!{$(in_main#0)<i>}.next|))
(define-fun .def_373 () Bool (and .def_134 .def_372))
(define-fun .def_356 () Bool (not .def_355))
(define-fun .def_374 () Bool (and .def_356 .def_373))
(define-fun .def_378 () Bool (and .def_374 .def_377))
(define-fun .def_381 () Bool (or .def_378 .def_380))
(define-fun .def_347 () Bool (= .def_52 61))
(define-fun .def_325 () Bool (= !pc.next 75))
(define-fun .def_351 () Bool (and .def_325 .def_347))
(define-fun .def_183 () Bool (<= .def_26 .def_30))
(define-fun .def_240 () Bool (and .def_183 .def_239))
(define-fun .def_352 () Bool (and .def_240 .def_351))
(define-fun .def_349 () Bool (and .def_347 .def_348))
(define-fun .def_332 () Int (select .def_10 .def_30))
(define-fun .def_333 () (Array Int Int) (store .def_12 .def_30 .def_332))
(define-fun .def_334 () Bool (= |!{$(in_main#0)<a2.2>}.next| .def_333))
(define-fun .def_335 () Bool (and .def_188 .def_334))
(define-fun .def_336 () Bool (and .def_118 .def_335))
(define-fun .def_337 () Bool (and .def_120 .def_336))
(define-fun .def_338 () Bool (and .def_122 .def_337))
(define-fun .def_339 () Bool (and .def_124 .def_338))
(define-fun .def_340 () Bool (and .def_126 .def_339))
(define-fun .def_341 () Bool (and .def_128 .def_340))
(define-fun .def_342 () Bool (and .def_130 .def_341))
(define-fun .def_343 () Bool (and .def_132 .def_342))
(define-fun .def_199 () Int (* (- 1) |!{$(in_main#0)<i>}.next|))
(define-fun .def_200 () Int (+ .def_30 .def_199))
(define-fun .def_201 () Bool (= .def_200 (- 1)))
(define-fun .def_344 () Bool (and .def_201 .def_343))
(define-fun .def_184 () Bool (not .def_183))
(define-fun .def_345 () Bool (and .def_184 .def_344))
(define-fun .def_350 () Bool (and .def_345 .def_349))
(define-fun .def_353 () Bool (or .def_350 .def_352))
(define-fun .def_324 () Bool (= .def_52 75))
(define-fun .def_303 () Bool (= !pc.next 89))
(define-fun .def_328 () Bool (and .def_303 .def_324))
(define-fun .def_329 () Bool (and .def_240 .def_328))
(define-fun .def_326 () Bool (and .def_324 .def_325))
(define-fun .def_310 () Int (select .def_12 .def_30))
(define-fun .def_311 () (Array Int Int) (store .def_14 .def_30 .def_310))
(define-fun .def_312 () Bool (= |!{$(in_main#0)<a3.3>}.next| .def_311))
(define-fun .def_313 () Bool (and .def_189 .def_312))
(define-fun .def_314 () Bool (and .def_120 .def_313))
(define-fun .def_315 () Bool (and .def_122 .def_314))
(define-fun .def_316 () Bool (and .def_124 .def_315))
(define-fun .def_317 () Bool (and .def_126 .def_316))
(define-fun .def_318 () Bool (and .def_128 .def_317))
(define-fun .def_319 () Bool (and .def_130 .def_318))
(define-fun .def_320 () Bool (and .def_132 .def_319))
(define-fun .def_321 () Bool (and .def_201 .def_320))
(define-fun .def_322 () Bool (and .def_184 .def_321))
(define-fun .def_327 () Bool (and .def_322 .def_326))
(define-fun .def_330 () Bool (or .def_327 .def_329))
(define-fun .def_302 () Bool (= .def_52 89))
(define-fun .def_282 () Bool (= !pc.next 103))
(define-fun .def_306 () Bool (and .def_282 .def_302))
(define-fun .def_307 () Bool (and .def_240 .def_306))
(define-fun .def_304 () Bool (and .def_302 .def_303))
(define-fun .def_289 () Int (select .def_14 .def_30))
(define-fun .def_290 () (Array Int Int) (store .def_16 .def_30 .def_289))
(define-fun .def_291 () Bool (= |!{$(in_main#0)<a4.4>}.next| .def_290))
(define-fun .def_292 () Bool (and .def_190 .def_291))
(define-fun .def_293 () Bool (and .def_122 .def_292))
(define-fun .def_294 () Bool (and .def_124 .def_293))
(define-fun .def_295 () Bool (and .def_126 .def_294))
(define-fun .def_296 () Bool (and .def_128 .def_295))
(define-fun .def_297 () Bool (and .def_130 .def_296))
(define-fun .def_298 () Bool (and .def_132 .def_297))
(define-fun .def_299 () Bool (and .def_201 .def_298))
(define-fun .def_300 () Bool (and .def_184 .def_299))
(define-fun .def_305 () Bool (and .def_300 .def_304))
(define-fun .def_308 () Bool (or .def_305 .def_307))
(define-fun .def_281 () Bool (= .def_52 103))
(define-fun .def_262 () Bool (= !pc.next 117))
(define-fun .def_285 () Bool (and .def_262 .def_281))
(define-fun .def_286 () Bool (and .def_240 .def_285))
(define-fun .def_283 () Bool (and .def_281 .def_282))
(define-fun .def_269 () Int (select .def_16 .def_30))
(define-fun .def_270 () (Array Int Int) (store .def_18 .def_30 .def_269))
(define-fun .def_271 () Bool (= |!{$(in_main#0)<a5.5>}.next| .def_270))
(define-fun .def_272 () Bool (and .def_191 .def_271))
(define-fun .def_273 () Bool (and .def_124 .def_272))
(define-fun .def_274 () Bool (and .def_126 .def_273))
(define-fun .def_275 () Bool (and .def_128 .def_274))
(define-fun .def_276 () Bool (and .def_130 .def_275))
(define-fun .def_277 () Bool (and .def_132 .def_276))
(define-fun .def_278 () Bool (and .def_201 .def_277))
(define-fun .def_279 () Bool (and .def_184 .def_278))
(define-fun .def_284 () Bool (and .def_279 .def_283))
(define-fun .def_287 () Bool (or .def_284 .def_286))
(define-fun .def_261 () Bool (= .def_52 117))
(define-fun .def_243 () Bool (= !pc.next 131))
(define-fun .def_265 () Bool (and .def_243 .def_261))
(define-fun .def_266 () Bool (and .def_240 .def_265))
(define-fun .def_263 () Bool (and .def_261 .def_262))
(define-fun .def_250 () Int (select .def_18 .def_30))
(define-fun .def_251 () (Array Int Int) (store .def_20 .def_30 .def_250))
(define-fun .def_252 () Bool (= |!{$(in_main#0)<a6.6>}.next| .def_251))
(define-fun .def_253 () Bool (and .def_192 .def_252))
(define-fun .def_254 () Bool (and .def_126 .def_253))
(define-fun .def_255 () Bool (and .def_128 .def_254))
(define-fun .def_256 () Bool (and .def_130 .def_255))
(define-fun .def_257 () Bool (and .def_132 .def_256))
(define-fun .def_258 () Bool (and .def_201 .def_257))
(define-fun .def_259 () Bool (and .def_184 .def_258))
(define-fun .def_264 () Bool (and .def_259 .def_263))
(define-fun .def_267 () Bool (or .def_264 .def_266))
(define-fun .def_242 () Bool (= .def_52 131))
(define-fun .def_219 () Bool (= !pc.next 145))
(define-fun .def_246 () Bool (and .def_219 .def_242))
(define-fun .def_247 () Bool (and .def_240 .def_246))
(define-fun .def_244 () Bool (and .def_242 .def_243))
(define-fun .def_226 () Int (select .def_20 .def_30))
(define-fun .def_227 () (Array Int Int) (store .def_22 .def_30 .def_226))
(define-fun .def_228 () Bool (= |!{$(in_main#0)<a7.7>}.next| .def_227))
(define-fun .def_229 () Bool (and .def_193 .def_228))
(define-fun .def_230 () Bool (and .def_128 .def_229))
(define-fun .def_231 () Bool (and .def_130 .def_230))
(define-fun .def_232 () Bool (and .def_132 .def_231))
(define-fun .def_233 () Bool (and .def_201 .def_232))
(define-fun .def_234 () Bool (and .def_184 .def_233))
(define-fun .def_245 () Bool (and .def_234 .def_244))
(define-fun .def_248 () Bool (or .def_245 .def_247))
(define-fun .def_218 () Bool (= .def_52 145))
(define-fun .def_172 () Bool (= !pc.next 159))
(define-fun .def_222 () Bool (and .def_172 .def_218))
(define-fun .def_204 () Bool (= |!{$(in_main#0)<x>}.next| 0))
(define-fun .def_205 () Bool (and .def_114 .def_204))
(define-fun .def_206 () Bool (and .def_116 .def_205))
(define-fun .def_207 () Bool (and .def_118 .def_206))
(define-fun .def_208 () Bool (and .def_120 .def_207))
(define-fun .def_209 () Bool (and .def_122 .def_208))
(define-fun .def_210 () Bool (and .def_124 .def_209))
(define-fun .def_211 () Bool (and .def_126 .def_210))
(define-fun .def_212 () Bool (and .def_128 .def_211))
(define-fun .def_213 () Bool (and .def_130 .def_212))
(define-fun .def_214 () Bool (and .def_132 .def_213))
(define-fun .def_215 () Bool (and .def_134 .def_214))
(define-fun .def_216 () Bool (and .def_183 .def_215))
(define-fun .def_223 () Bool (and .def_216 .def_222))
(define-fun .def_220 () Bool (and .def_218 .def_219))
(define-fun .def_185 () Int (select .def_22 .def_30))
(define-fun .def_186 () (Array Int Int) (store .def_24 .def_30 .def_185))
(define-fun .def_195 () Bool (= |!{$(in_main#0)<a8.8>}.next| .def_186))
(define-fun .def_196 () Bool (and .def_194 .def_195))
(define-fun .def_197 () Bool (and .def_130 .def_196))
(define-fun .def_198 () Bool (and .def_132 .def_197))
(define-fun .def_202 () Bool (and .def_198 .def_201))
(define-fun .def_203 () Bool (and .def_184 .def_202))
(define-fun .def_221 () Bool (and .def_203 .def_220))
(define-fun .def_224 () Bool (or .def_221 .def_223))
(define-fun .def_176 () Bool (= !pc.next 0))
(define-fun .def_167 () Bool (= .def_52 159))
(define-fun .def_177 () Bool (and .def_167 .def_176))
(define-fun .def_101 () Bool (<= .def_26 .def_8))
(define-fun .def_154 () Bool (and .def_101 .def_112))
(define-fun .def_155 () Bool (and .def_114 .def_154))
(define-fun .def_156 () Bool (and .def_116 .def_155))
(define-fun .def_157 () Bool (and .def_118 .def_156))
(define-fun .def_158 () Bool (and .def_120 .def_157))
(define-fun .def_159 () Bool (and .def_122 .def_158))
(define-fun .def_160 () Bool (and .def_124 .def_159))
(define-fun .def_161 () Bool (and .def_126 .def_160))
(define-fun .def_162 () Bool (and .def_128 .def_161))
(define-fun .def_163 () Bool (and .def_130 .def_162))
(define-fun .def_164 () Bool (and .def_132 .def_163))
(define-fun .def_165 () Bool (and .def_134 .def_164))
(define-fun .def_178 () Bool (and .def_165 .def_177))
(define-fun .def_173 () Bool (and .def_167 .def_172))
(define-fun .def_138 () Int (* (- 1) |!{$(in_main#0)<x>}.next|))
(define-fun .def_139 () Int (+ .def_8 .def_138))
(define-fun .def_140 () Bool (= .def_139 (- 1)))
(define-fun .def_141 () Bool (and .def_114 .def_140))
(define-fun .def_142 () Bool (and .def_116 .def_141))
(define-fun .def_143 () Bool (and .def_118 .def_142))
(define-fun .def_144 () Bool (and .def_120 .def_143))
(define-fun .def_145 () Bool (and .def_122 .def_144))
(define-fun .def_146 () Bool (and .def_124 .def_145))
(define-fun .def_147 () Bool (and .def_126 .def_146))
(define-fun .def_148 () Bool (and .def_128 .def_147))
(define-fun .def_149 () Bool (and .def_130 .def_148))
(define-fun .def_150 () Bool (and .def_132 .def_149))
(define-fun .def_151 () Bool (and .def_134 .def_150))
(define-fun .def_104 () Int (select .def_24 .def_8))
(define-fun .def_103 () Int (select .def_10 .def_8))
(define-fun .def_105 () Bool (= .def_103 .def_104))
(define-fun .def_106 () Int (ite .def_105 1 0))
(define-fun .def_107 () Bool (= .def_106 0))
(define-fun .def_108 () Bool (not .def_107))
(define-fun .def_152 () Bool (and .def_108 .def_151))
(define-fun .def_102 () Bool (not .def_101))
(define-fun .def_153 () Bool (and .def_102 .def_152))
(define-fun .def_174 () Bool (and .def_153 .def_173))
(define-fun .def_169 () Bool (= !pc.next 179))
(define-fun .def_170 () Bool (and .def_167 .def_169))
(define-fun .def_113 () Bool (and .def_107 .def_112))
(define-fun .def_115 () Bool (and .def_113 .def_114))
(define-fun .def_117 () Bool (and .def_115 .def_116))
(define-fun .def_119 () Bool (and .def_117 .def_118))
(define-fun .def_121 () Bool (and .def_119 .def_120))
(define-fun .def_123 () Bool (and .def_121 .def_122))
(define-fun .def_125 () Bool (and .def_123 .def_124))
(define-fun .def_127 () Bool (and .def_125 .def_126))
(define-fun .def_129 () Bool (and .def_127 .def_128))
(define-fun .def_131 () Bool (and .def_129 .def_130))
(define-fun .def_133 () Bool (and .def_131 .def_132))
(define-fun .def_135 () Bool (and .def_133 .def_134))
(define-fun .def_136 () Bool (and .def_102 .def_135))
(define-fun .def_171 () Bool (and .def_136 .def_170))
(define-fun .def_175 () Bool (or .def_171 .def_174))
(define-fun .def_179 () Bool (or .def_175 .def_178))
(define-fun .def_99 () Bool (and .def_55 .def_98))
(define-fun .def_95 () Bool (= |!{$(in_main#0)<i>}.next| |%{$(in_main#0)<i>}#1|))
(define-fun .def_93 () Bool (= |!{$(in_main#0)<a>}.next| 0))
(define-fun .def_91 () Bool (= |!{$(in_main#0)<N>}.next| |!{$(in_main#0)<$(in___VERIFIER_nondet_int#0)<h#<__VERIFIER_nondet_int.return>>>}|))
(define-fun .def_89 () Bool (= |!{$(in_main#0)<a8.8>}.next| |%{$(in_main#0)<a8.8>}#1|))
(define-fun .def_87 () Bool (= |!{$(in_main#0)<a7.7>}.next| |%{$(in_main#0)<a7.7>}#1|))
(define-fun .def_85 () Bool (= |!{$(in_main#0)<a6.6>}.next| |%{$(in_main#0)<a6.6>}#1|))
(define-fun .def_83 () Bool (= |!{$(in_main#0)<a5.5>}.next| |%{$(in_main#0)<a5.5>}#1|))
(define-fun .def_81 () Bool (= |!{$(in_main#0)<a4.4>}.next| |%{$(in_main#0)<a4.4>}#1|))
(define-fun .def_79 () Bool (= |!{$(in_main#0)<a3.3>}.next| |%{$(in_main#0)<a3.3>}#1|))
(define-fun .def_77 () Bool (= |!{$(in_main#0)<a2.2>}.next| |%{$(in_main#0)<a2.2>}#1|))
(define-fun .def_75 () Bool (= |!{$(in_main#0)<a1.1>}.next| |%{$(in_main#0)<a1.1>}#1|))
(define-fun .def_74 () Bool (= |!{$(in_main#0)<x>}.next| |%{$(in_main#0)<x>}#1|))
(define-fun .def_76 () Bool (and .def_74 .def_75))
(define-fun .def_78 () Bool (and .def_76 .def_77))
(define-fun .def_80 () Bool (and .def_78 .def_79))
(define-fun .def_82 () Bool (and .def_80 .def_81))
(define-fun .def_84 () Bool (and .def_82 .def_83))
(define-fun .def_86 () Bool (and .def_84 .def_85))
(define-fun .def_88 () Bool (and .def_86 .def_87))
(define-fun .def_90 () Bool (and .def_88 .def_89))
(define-fun .def_92 () Bool (and .def_90 .def_91))
(define-fun .def_94 () Bool (and .def_92 .def_93))
(define-fun .def_96 () Bool (and .def_94 .def_95))
(define-fun .def_100 () Bool (and .def_96 .def_99))
(define-fun .def_180 () Bool (or .def_100 .def_179))
(define-fun .def_225 () Bool (or .def_180 .def_224))
(define-fun .def_249 () Bool (or .def_225 .def_248))
(define-fun .def_268 () Bool (or .def_249 .def_267))
(define-fun .def_288 () Bool (or .def_268 .def_287))
(define-fun .def_309 () Bool (or .def_288 .def_308))
(define-fun .def_331 () Bool (or .def_309 .def_330))
(define-fun .def_354 () Bool (or .def_331 .def_353))
(define-fun .def_382 () Bool (! (or .def_354 .def_381) :trans true))
(define-fun .def_181 () Bool (= .def_52 179))
(define-fun .def_383 () Bool (! (not .def_181) :invar-property 0 :invar-property-name ||))
(assert true)
